NAME /Users/henri/Research/solvers/instances/idol-instances/robust/collection/cbp_Subramanyam_et_al_2020/CapBud_N5_19/models/uncertain_technology_matrix/
ROWS
 N  OBJ
 L  capacity
 L  c_395
 L  c_396
 L  c_397
 L  c_398
 L  c_399
COLUMNS
    MARKER    'MARKER'                 'INTORG'
    x_0        OBJ        -8.85207
    x_0        c_395      1
    x_0        capacity   1.77041
    x_1        OBJ        -8.44854
    x_1        c_396      1
    x_1        capacity   1.68971
    x_2        OBJ        -5.10128
    x_2        c_397      1
    x_2        capacity   1.02026
    x_3        OBJ        -1.27689
    x_3        c_398      1
    x_3        capacity   0.255377
    x_4        OBJ        -6.21473
    x_4        c_399      1
    x_4        capacity   1.24295
    y_0        OBJ        -7.08166
    y_0        c_395      1
    y_0        capacity   1.77041
    y_1        OBJ        -6.75883
    y_1        c_396      1
    y_1        capacity   1.68971
    y_2        OBJ        -4.08102
    y_2        c_397      1
    y_2        capacity   1.02026
    y_3        OBJ        -1.02151
    y_3        c_398      1
    y_3        capacity   0.255377
    y_4        OBJ        -4.97178
    y_4        c_399      1
    y_4        capacity   1.24295
    MARKER    'MARKER'                 'INTEND'
RHS
    RHS       capacity   14.9468
    RHS       c_395      1
    RHS       c_396      1
    RHS       c_397      1
    RHS       c_398      1
    RHS       c_399      1
BOUNDS
 LI BND       x_0        0
 UI BND       x_0        1
 LI BND       x_1        0
 UI BND       x_1        1
 LI BND       x_2        0
 UI BND       x_2        1
 LI BND       x_3        0
 UI BND       x_3        1
 LI BND       x_4        0
 UI BND       x_4        1
 LI BND       y_0        0
 UI BND       y_0        1
 LI BND       y_1        0
 UI BND       y_1        1
 LI BND       y_2        0
 UI BND       y_2        1
 LI BND       y_3        0
 UI BND       y_3        1
 LI BND       y_4        0
 UI BND       y_4        1
ENDATA
